2342.65 0
0 1 2 3 14 15 16 29 28 27 26 25 24 23 22 21 20 33 34 46 47 48 60 59 72 73 85 86 87 88 89 90 91 92 93 94 95 96 97 84 83 71 70 69 82 81 80 79 78 77 76 75 74 61 62 63 64 65 66 67 68 55 54 53 52 51 50 49 36 35 37 38 39 40 41 42 43 56 57 58 45 44 30 31 32 19 18 17 4 5 6 188 187 186 185 184 183 182 169 170 171 172 173 174 175 162 161 160 159 158 157 156 143 144 145 146 147 148 149 136 135 134 133 132 131 118 119 120 121 122 123 110 109 108 107 106 105 104 117 116 103 102 101 100 99 98 111 124 125 112 113 114 115 126 127 128 129 130 142 141 140 139 138 137 150 151 152 153 154 155 168 167 166 165 164 163 176 177 178 179 180 181 194 193 192 191 190 189 7 8 9 10 11 12 13